20 60 133
1 6 2
1 7 3
1 15 3
1 16 4
1 18 1
1 19 1
2 7 4
2 9 2
2 18 3
3 4 1
3 9 1
3 10 2
3 13 2
3 14 1
3 20 3
4 7 5
4 9 2
4 11 5
4 13 2
4 14 3
4 16 4
4 18 4
5 6 2
5 17 3
5 18 4
5 20 5
6 7 2
6 12 5
7 13 1
7 14 5
7 18 5
7 19 1
7 20 2
8 13 1
8 14 3
8 19 1
9 13 3
9 16 5
9 18 3
10 11 2
10 13 2
11 12 5
11 13 3
11 14 2
11 15 1
12 13 3
12 15 5
12 19 5
12 20 4
13 14 1
13 15 5
14 18 5
14 19 3
14 20 4
15 17 3
15 19 5
16 17 2
16 19 2
16 20 4
17 18 1
